(declare-fun temp138595_1 () (_ BitVec 64))
(declare-fun temp138595_2 () (_ BitVec 64))
(declare-fun var77740 () (_ BitVec 64))
(declare-fun k!0 () Bool)
(declare-fun ARGNAME_filter_NAMEEND_DIM () (_ BitVec 64))
(declare-fun ARGNAME_data_format_NAMEEND_STRFMT () (_ BitVec 64))
(declare-fun temp138595_3 () (_ BitVec 64))
(declare-fun ARGNAME_out_backprop_NAMEEND_DIM () (_ BitVec 64))
(declare-fun var77770 () (_ BitVec 64))
(declare-fun temp138595_4 () (_ BitVec 64))
(declare-fun temp138595_5 () (_ BitVec 64))
(declare-fun ARGNAME_filter_NAMEEND_DIMSIZE
             ()
             (Array (_ BitVec 64) (_ BitVec 64)))
(declare-fun temp138595_6 () (_ BitVec 64))
(declare-fun temp138595_7 () (_ BitVec 64))
(declare-fun temp138595_8 () (_ BitVec 64))
(declare-fun temp138595_9 () (_ BitVec 64))
(declare-fun temp138595_10 () (_ BitVec 64))
(declare-fun temp138595_11 () (_ BitVec 64))
(declare-fun temp138595_12 () (_ BitVec 64))
(declare-fun temp138595_13 () (_ BitVec 64))
(declare-fun temp138595_14 () (_ BitVec 64))
(declare-fun temp138595_15 () (_ BitVec 64))
(declare-fun temp138595_16 () (_ BitVec 64))
(declare-fun temp138595_17 () (_ BitVec 64))
(declare-fun temp138595_18 () (_ BitVec 64))
(declare-fun var77799 () (_ BitVec 64))
(declare-fun temp138595_19 () (_ BitVec 64))
(declare-fun ARGNAME_out_backprop_NAMEEND_DIMSIZE
             ()
             (Array (_ BitVec 64) (_ BitVec 64)))
(declare-fun temp138595_20 () (_ BitVec 64))
(declare-fun temp138595_21 () (_ BitVec 64))
(declare-fun temp138595_22 () (_ BitVec 64))
(declare-fun temp138595_23 () (_ BitVec 64))
(declare-fun temp138595_24 () (_ BitVec 64))
(declare-fun temp138595_25 () (_ BitVec 64))
(declare-fun temp138595_26 () (_ BitVec 64))
(declare-fun temp138595_27 () (_ BitVec 64))
(declare-fun temp138595_28 () (_ BitVec 64))
(declare-fun temp138595_29 () (_ BitVec 64))
(declare-fun temp138595_30 () (_ BitVec 64))
(declare-fun temp138595_31 () (_ BitVec 64))
(declare-fun temp138595_32 () (_ BitVec 64))
(declare-fun var77832 () (_ BitVec 64))
(declare-fun temp138595_33 () (_ BitVec 64))
(declare-fun temp138595_34 () (_ BitVec 64))
(declare-fun var77833 () (_ BitVec 64))
(declare-fun var77834 () (_ BitVec 64))
(declare-fun temp138595_35 () (_ BitVec 64))
(declare-fun temp138595_36 () (_ BitVec 64))
(declare-fun var275510 () (_ BitVec 64))
(declare-fun temp138595_37 () (_ BitVec 64))
(declare-fun var275528 () (_ BitVec 64))
(declare-fun temp138595_38 () (_ BitVec 64))
(declare-fun temp138595_40 () (_ BitVec 64))
(declare-fun temp138595_39 () (_ BitVec 64))
(declare-fun temp138595_42 () (_ BitVec 64))
(declare-fun temp138595_41 () (_ BitVec 64))
(declare-fun temp138595_43 () (_ BitVec 64))
(declare-fun var406582 () (_ BitVec 64))
(declare-fun temp138595_44 () (_ BitVec 64))
(declare-fun var406600 () (_ BitVec 64))
(declare-fun temp138595_45 () (_ BitVec 64))
(declare-fun temp138595_47 () (_ BitVec 64))
(declare-fun temp138595_46 () (_ BitVec 64))
(declare-fun temp138595_49 () (_ BitVec 64))
(declare-fun temp138595_48 () (_ BitVec 64))
(declare-fun temp138595_50 () (_ BitVec 64))
(declare-fun var537654 () (_ BitVec 64))
(declare-fun temp138595_51 () (_ BitVec 64))
(declare-fun var537672 () (_ BitVec 64))
(declare-fun temp138595_52 () (_ BitVec 64))
(declare-fun temp138595_54 () (_ BitVec 64))
(declare-fun temp138595_53 () (_ BitVec 64))
(declare-fun temp138595_56 () (_ BitVec 64))
(declare-fun temp138595_55 () (_ BitVec 64))
(declare-fun temp138595_58 () (_ BitVec 64))
(declare-fun temp138595_57 () (_ BitVec 64))
(declare-fun temp138595_60 () (_ BitVec 64))
(declare-fun temp138595_59 () (_ BitVec 64))
(declare-fun temp138595_62 () (_ BitVec 64))
(declare-fun temp138595_61 () (_ BitVec 64))
(declare-fun temp138595_63 () (_ BitVec 64))
(declare-fun var861259 () (_ BitVec 64))
(declare-fun var861238 () (_ BitVec 64))
(declare-fun var664611 () (_ BitVec 64))
(declare-fun temp138595_64 () (_ BitVec 64))
(declare-fun temp138595_65 () (_ BitVec 64))
(declare-fun var1057842 () (_ BitVec 64))
(declare-fun temp138595_66 () (_ BitVec 64))
(declare-fun var1123378 () (_ BitVec 64))
(declare-fun temp138595_67 () (_ BitVec 64))
(declare-fun var1188914 () (_ BitVec 64))
(assert (or (= ARGNAME_data_format_NAMEEND_STRFMT #x0000000000000000)
    (= ARGNAME_data_format_NAMEEND_STRFMT #x0000000000000001)
    (= ARGNAME_data_format_NAMEEND_STRFMT #x0000000000000002)
    (= ARGNAME_data_format_NAMEEND_STRFMT #x0000000000000003)
    (= ARGNAME_data_format_NAMEEND_STRFMT #x0000000000000004)
    (= ARGNAME_data_format_NAMEEND_STRFMT #x0000000000000005)))
(assert (= temp138595_1 #x0000000000000005))
(assert (= var77740
   (ite (= ARGNAME_filter_NAMEEND_DIM temp138595_1)
        #x0000000000000001
        #x0000000000000000)))
(assert (= temp138595_2 #x0000000000000001))
(assert (= var77740 temp138595_2))
(assert (= temp138595_3 #x0000000000000005))
(assert (= var77770
   (ite (= ARGNAME_out_backprop_NAMEEND_DIM temp138595_3)
        #x0000000000000001
        #x0000000000000000)))
(assert (= temp138595_4 #x0000000000000001))
(assert (= var77770 temp138595_4))
(assert (= temp138595_5 #x0000000000000000))
(assert (= temp138595_6 (select ARGNAME_filter_NAMEEND_DIMSIZE temp138595_5)))
(assert (= temp138595_7 #x0000000000000001))
(assert (= temp138595_8 (select ARGNAME_filter_NAMEEND_DIMSIZE temp138595_7)))
(assert (= temp138595_9 #x0000000000000002))
(assert (= temp138595_10 (select ARGNAME_filter_NAMEEND_DIMSIZE temp138595_9)))
(assert (= temp138595_11 #x0000000000000003))
(assert (= temp138595_12 (select ARGNAME_filter_NAMEEND_DIMSIZE temp138595_11)))
(assert (= temp138595_13 #x0000000000000004))
(assert (= temp138595_14 (select ARGNAME_filter_NAMEEND_DIMSIZE temp138595_13)))
(assert (= temp138595_15 #x0000000000000005))
(assert (= temp138595_16 (select ARGNAME_filter_NAMEEND_DIMSIZE temp138595_15)))
(assert (= temp138595_17 #x0000000000000003))
(assert (= temp138595_18 (select ARGNAME_filter_NAMEEND_DIMSIZE temp138595_17)))
(assert (= var77799 temp138595_18))
(assert (= temp138595_19 #x0000000000000000))
(assert (= temp138595_20 (select ARGNAME_out_backprop_NAMEEND_DIMSIZE temp138595_19)))
(assert (= temp138595_21 #x0000000000000001))
(assert (= temp138595_22 (select ARGNAME_out_backprop_NAMEEND_DIMSIZE temp138595_21)))
(assert (= temp138595_23 #x0000000000000002))
(assert (= temp138595_24 (select ARGNAME_out_backprop_NAMEEND_DIMSIZE temp138595_23)))
(assert (= temp138595_25 #x0000000000000003))
(assert (= temp138595_26 (select ARGNAME_out_backprop_NAMEEND_DIMSIZE temp138595_25)))
(assert (= temp138595_27 #x0000000000000004))
(assert (= temp138595_28 (select ARGNAME_out_backprop_NAMEEND_DIMSIZE temp138595_27)))
(assert (= temp138595_29 #x0000000000000005))
(assert (= temp138595_30 (select ARGNAME_out_backprop_NAMEEND_DIMSIZE temp138595_29)))
(assert (= temp138595_31 #x0000000000000004))
(assert (= temp138595_32 (select ARGNAME_out_backprop_NAMEEND_DIMSIZE temp138595_31)))
(assert (= var77832 temp138595_32))
(assert (= temp138595_33 #x0000000000000004))
(assert (= temp138595_34 (select ARGNAME_filter_NAMEEND_DIMSIZE temp138595_33)))
(assert (= var77833 temp138595_34))
(assert (= var77834 (ite (= var77832 var77833) #x0000000000000001 #x0000000000000000)))
(assert (= temp138595_35 #x0000000000000001))
(assert (= var77834 temp138595_35))
(assert (= temp138595_36 #x0000000000000001))
(assert (= var275510 temp138595_36))
(assert (= temp138595_37 #x0000000000000001))
(assert (= var275528
   (ite (bvslt var275510 temp138595_37) #x0000000000000001 #x0000000000000000)))
(assert (= temp138595_38 #x0000000000000000))
(assert (= var275528 temp138595_38))
(assert (= temp138595_40 #x0000000000000000))
(assert (= temp138595_39 temp138595_40))
(assert (= temp138595_42 #x0000000000000000))
(assert (= temp138595_41 temp138595_42))
(assert (= temp138595_43 #x0000000000000001))
(assert (= var406582 temp138595_43))
(assert (= temp138595_44 #x0000000000000001))
(assert (= var406600
   (ite (bvslt var406582 temp138595_44) #x0000000000000001 #x0000000000000000)))
(assert (= temp138595_45 #x0000000000000000))
(assert (= var406600 temp138595_45))
(assert (= temp138595_47 #x0000000000000000))
(assert (= temp138595_46 temp138595_47))
(assert (= temp138595_49 #x0000000000000000))
(assert (= temp138595_48 temp138595_49))
(assert (= temp138595_50 #x0000000000000001))
(assert (= var537654 temp138595_50))
(assert (= temp138595_51 #x0000000000000001))
(assert (= var537672
   (ite (bvslt var537654 temp138595_51) #x0000000000000001 #x0000000000000000)))
(assert (= temp138595_52 #x0000000000000000))
(assert (= var537672 temp138595_52))
(assert (= temp138595_54 #x0000000000000000))
(assert (= temp138595_53 temp138595_54))
(assert (= temp138595_56 #x0000000000000000))
(assert (= temp138595_55 temp138595_56))
(assert (= temp138595_58 #x00000000000000ff))
(assert (= temp138595_57 temp138595_58))
(assert (= temp138595_60 #x00000000000000ff))
(assert (= temp138595_59 temp138595_60))
(assert (= temp138595_62 #x00000000000000ff))
(assert (= temp138595_61 temp138595_62))
(assert (= temp138595_63 #x0000000000000000))
(assert (= var861259 temp138595_63))
(assert (= var861238 var861259))
(assert (= var664611 var861238))
(assert (= temp138595_64 #x0000000000000000))
(assert (= var664611 temp138595_64))
(assert (= temp138595_65 #x0000000000008000))
(assert (= var1057842 temp138595_65))
(assert (= temp138595_66 #x0000000000040000))
(assert (= var1123378 temp138595_66))
(assert (= temp138595_67 #x0000000000200000))
(assert (= var1188914 temp138595_67))
(model-add temp138595_1 () (_ BitVec 64) #x0000000000000005)
(model-add temp138595_2 () (_ BitVec 64) #x0000000000000001)
(model-add var77740 () (_ BitVec 64) #x0000000000000001)
(model-del k!0)
(model-add ARGNAME_filter_NAMEEND_DIM
           ()
           (_ BitVec 64)
           (ite k!0 #x0000000000000005 (bvnot #x0000000000000005)))


